sifdecoder -A pc64.lnx.gfo -st   A0ESINDL

 Problem name: A0ESINDL

 Double precision version will be formed

 The objective function uses 2 linear groups
 
 There are 15002 linear equality constraints
 
 There are 10002 free variables
 There are 10000 variables bounded only from below 
 There are 25004 fixed variables
 
 
 File successfully decoded
 CUTEST: tools (double precision version) compiled successfully
 CUTEst: ipopt (double precision version) compiled successfully

******************************************************************************
This program contains Ipopt, a library for large-scale nonlinear optimization.
 Ipopt is released as open source code under the Eclipse Public License (EPL).
         For more information visit http://projects.coin-or.org/Ipopt
******************************************************************************

This is Ipopt version trunk, running with linear solver ma57.

Number of nonzeros in equality constraint Jacobian...:    54992
Number of nonzeros in inequality constraint Jacobian.:        0
Number of nonzeros in Lagrangian Hessian.............:    25002

Total number of variables............................:    20002
                     variables with only lower bounds:    10000
                variables with lower and upper bounds:        0
                     variables with only upper bounds:        0
Total number of equality constraints.................:    15002
Total number of inequality constraints...............:        0
        inequality constraints with only lower bounds:        0
   inequality constraints with lower and upper bounds:        0
        inequality constraints with only upper bounds:        0

iter    objective    inf_pr   inf_du lg(mu)  ||d||  lg(rg) alpha_du alpha_pr  ls
   0  4.9999900e-01 9.92e+01 6.99e-01  -1.0 0.00e+00    -  0.00e+00 0.00e+00   0
   1  3.3341161e-01 9.90e+01 7.18e-01  -1.0 2.88e+02    -  1.98e-03 2.02e-03h  1
   2  3.9771159e-01 9.79e+01 1.95e+00  -1.0 2.04e+01    -  2.35e-03 1.10e-02h  1
   3  9.9199317e+00 9.09e+01 3.59e+00  -1.0 9.92e+00    -  1.39e-02 7.24e-02f  1
   4  1.0673229e+03 1.03e-13 7.05e+00  -1.0 9.20e+00    -  1.11e-01 1.00e+00f  1
   5  4.1945440e+02 7.68e-14 1.49e+00  -1.0 4.93e+00    -  1.00e+00 4.37e-01f  1
   6  5.0092604e+02 4.01e-13 1.00e-06  -1.0 2.05e-01    -  1.00e+00 1.00e+00f  1
   7  1.8353887e+01 1.48e-13 2.83e-08  -2.5 1.59e+00    -  1.00e+00 1.00e+00f  1
   8  7.6907353e-01 8.88e-14 1.50e-09  -3.8 4.87e-02    -  1.00e+00 1.00e+00f  1
   9  8.9658688e-03 2.08e-13 1.85e-11  -5.7 2.36e-03    -  1.00e+00 1.00e+00f  1
iter    objective    inf_pr   inf_du lg(mu)  ||d||  lg(rg) alpha_du alpha_pr  ls
  10 -2.6070661e-04 2.84e-14 2.66e-14  -8.6 3.02e-05    -  1.00e+00 1.00e+00f  1

Number of Iterations....: 10

                                   (scaled)                 (unscaled)
Objective...............:  -2.6070660704270845e-04   -2.6070660704270845e-04
Dual infeasibility......:   2.6645352591003757e-14    2.6645352591003757e-14
Constraint violation....:   2.8421709430404007e-14    2.8421709430404007e-14
Complementarity.........:   2.5094946407654789e-09    2.5094946407654789e-09
Overall NLP error.......:   2.5094946407654789e-09    2.5094946407654789e-09


Number of objective function evaluations             = 11
Number of objective gradient evaluations             = 11
Number of equality constraint evaluations            = 11
Number of inequality constraint evaluations          = 0
Number of equality constraint Jacobian evaluations   = 11
Number of inequality constraint Jacobian evaluations = 0
Number of Lagrangian Hessian evaluations             = 10
Total CPU secs in IPOPT (w/o function evaluations)   =      0.849
Total CPU secs in NLP function evaluations           =      0.412

EXIT: Optimal Solution Found.

************************ CUTEst statistics ************************


 Package used            :  IPOPT
 Problem                 :  A0ESINDL  
 # variables             =           45006
 # constraints           =           15002
 # objective functions   =        0.2300000E+02
 # objective gradients   =        0.1200000E+02
 # objective Hessians    =        0.1100000E+02
 # Hessian-vector prdct  =        0.0000000E+00
 # constraints functions =        0.2400000E+02
 # constraints gradients =        0.1300000E+02
 # constraints Hessians  =        0.1100000E+02
 Exit code               =               0
 Final f                 =       -2.6070660704270845D-04
 Bounds feasibility      =        9.7493531089928911D-09
 Set up time             =            0.79 seconds
 Solve time              =            2.58 seconds


******************************************************************

